%mem=15GB     
%nproc=20
#P TEST b3lyp/6-311G** EmpiricalDispersion=GD3 counterpoise=2 

BTBT opt b3lyp/6-311G** GD3

0 1 0 1 0 1
X
X  1 1.0
X  1 10.0 2  90.0
X  3 30.0 1  90.0  2   -90.0
C  1 R1   3  A1    4     0.0 0 1
S  5 R2   1  A2    3     0.0 0 1
C  6 R3   5  A3    1     0.0 0 1
C  7 R4   6  A4    5   180.0 0 1
C  8 R5   7  A5    6   180.0 0 1
C  9 R6   8  A6    7     0.0 0 1
C 10 R7   9  A7    8     0.0 0 1
C 11 R8  10  A8    9     0.0 0 1
H  8 R10  7 A10    6     0.0 0 1
H  9 R11  8 A11   13     0.0 0 1
H 10 R12  9 A12   14     0.0 0 1
H 11 R13 10 A13   15     0.0 0 1
C 12 R9  11  A9   10   180.0 0 1
S	17	R2	1	A2	3	180.0 0 1
C	18	R3	17	A3	1	0.0 0 1
C	19	R4	18	A4	17	180.0 0 1
C	20	R5	19	A5	18	180.0 0 1
C	21	R6	20	A6	19	0.0 0 1
C	22	R7	21	A7	20	0.0 0 1
C	23	R8	22	A8	21	0.0 0 1
H	20	R10	19	A10	18	0.0 0 1
H	21	R11	20	A11	25	0.0 0 1
H	22	R12	21	A12	26	0.0 0 1
H	23	R13	22	A13	27	0.0 0 1
X 4  30.0  3  90.0 1   90.0
X 29 YY  4  90.0 3    0.0 
X 30 XX  29 90.0 4    0.0  
X 31 ZZ  30 90.0 29  -90.0 
X 32 1.0 31 90.0 30   0.0 
X 32 2.0 33   BB 30 -90.0
C	32	R1	31	A1	34	90.0	0	2
S	35	R2	32	A2	31	0.0	0	2
C	36	R3	35	A3	32	0.0	0	2
C	37	R4	36	A4	35	180.0	0	2
C	38	R5	37	A5	36	180.0	0	2
C	39	R6	38	A6	37	0.0	0	2
C	40	R7	39	A7	38	0.0	0	2
C	41	R8	40	A8	39	0.0	0	2
H	38	R10	37	A10	36	0.0	0	2
H	39	R11	38	A11	43	0.0	0	2
H	40	R12	39	A12	44	0.0	0	2
H	41	R13	40	A13	45	0.0	0	2
C	42	R9	41	A9	40	180.0	0	2
S	47	R2	32	A2	31	180.0	0	2
C	48	R3	47	A3	32	0.0	0	2
C	49	R4	48	A4	47	180.0	0	2
C	50	R5	49	A5	48	180.0	0	2
C	51	R6	50	A6	49	0.0	0	2
C	52	R7	51	A7	50	0.0	0	2
C	53	R8	52	A8	51	0.0	0	2
H	50	R10	49	A10	48	0.0	0	2
H	51	R11	50	A11	55	0.0	0	2
H	52	R12	51	A12	56	0.0	0	2
H	53	R13	52	A13	57	0.0	0	2

XX 34.5
YY 28.8
ZZ 10.0
BB 0.0

R1 0.68696
R2 1.75429
R3 1.76959
R4 1.39382
R5 1.38966
R6 1.40323
R7 1.38620
R8 1.40215
R9 1.43298
R10 1.08363
R11 1.08372
R12 1.08370
R13 1.08411
A1 121.34828
A2 112.486
A3 90.214
A4 126.298
A5 118.557
A6 120.850
A7 120.736
A8 119.471
A9 130.499
A10 120.740
A11 119.436
A12 119.542
A13 120.723


